File : Instances/p58
Used 70s
39497

0 0 0 0 1 1 0 0 1 0 1 1 1 1 0 0 0 0 1 1 0 1 1 1 1 1 1 1 0 0 
18 19 21 27 5 12 21 27 22 27 4 19 13 13 19 18 13 10 22 27 18 21 5 24 10 18 22 19 4 21 19 26 4 22 27 12 8 8 24 21 18 8 12 4 8 26 13 21 19 26 24 22 24 21 8 12 18 26 18 25 4 24 18 8 13 11 23 19 11 25 18 12 19 8 23 23 10 23 8 22 23 5 26 25 4 13 19 5 27 25 11 19 25 25 5 13 11 12 5 11 19 21 25 18 4 24 4 27 22 13 26 4 18 12 12 8 11 25 10 8 26 11 27 19 26 21 5 11 26 23 11 24 25 10 23 8 13 13 11 10 12 22 11 11 25 5 22 22 22 25 24 23 23 27 8 11 5 21 13 13 13 27 10 24 5 27 5 4 13 21 23 8 19 10 26 5 27 10 4 10 5 21 24 19 12 8 11 23 27 21 21 21 19 4 25 12 18 21 10 19 
